3231096
85,37,68,69,11,32,77,105,75,61,17,72,98,87,64,6,18,92,107,35,41,49,54,67,7,39,27,59,70,38,46,53,16,104,86,52,14,34,44,0,100,81,108,10,96,90,50,83,58,28,84,78,5,31,62,94,29,60,42,43,102,55,73,21,57,99,47,20,91,3,66,33,45,93,80,24,97,4,25,8,76,9,22,23,79,103,95,12,88,101,63,19,2,82,1,106,15,51,89,65,36,56,71,48,30,13,40,74,26
